networks/zoo_70_252/zoo_70_252.txt
Number of groups: 31
Flow 5: {28 29} {29 27} 
Flow 8: {2 1} {1 7} {7 5} 
Flow 8: {24 23} {23 18} {18 54} 
Flow 11: {3 28} 
Flow 27: {7 8} {8 44} 
Flow 29: {6 10} {10 22} {22 12} {12 13} {13 49} 
Flow 33: {9 21} {21 20} {20 19} {19 55} 
Flow 37: {5 6} {6 9} {9 24} {24 60} 
Flow 46: {8 7} {7 1} {1 4} {4 28} {28 64} 
Flow 54: {11 13} {13 18} 
Flow 71: {12 48} 
Flow 73: {22 10} {10 35} {35 16} {16 52} 
Flow 76: {23 25} {25 19} {19 20} {20 56} 
Flow 81: {19 26} {26 62} 
Flow 101: {15 34} {34 35} {35 36} {36 27} {27 63} 
Flow 104: {34 33} {33 32} {32 68} 
Flow 116: {15 14} {14 13} {13 12} {12 22} {22 58} 
Flow 124: {17 18} {18 23} {23 59} 
Flow 129: {21 9} {9 6} {6 42} 
Flow 130: {5 7} {7 43} 
Flow 141: {19 25} {25 61} 
Flow 157: {23 24} {24 9} {9 45} 
Flow 165: {35 32} {32 31} 
Flow 169: {18 13} {13 14} {14 15} {15 51} 
Flow 174: {4 1} {1 37} 
Flow 186: {27 29} {29 30} {30 31} {31 67} 
Flow 200: {27 36} {36 35} {35 34} {34 70} 
Flow 201: {31 32} {32 33} {33 34} {34 15} 
Flow 205: {31 30} {30 29} {29 28} {28 4} {4 40} 
Flow 206: {32 35} {35 10} {10 6} {6 5} {5 41} 
Flow 220: {28 3} {3 39} 
Time taken running everything: 8 seconds
