networks/zoo_70_252/standard/zoo_70_252.sol
<?xml version = "1.0" encoding="UTF-8" standalone="yes"?>
<CPLEXSolution version="1.2">
 <header
   problemName="networks/zoo_70_252/zoo_70_252.lp"
   solutionName="incumbent"
   solutionIndex="-1"
   objectiveValue="30.999999999499998"
   solutionTypeValue="3"
   solutionTypeString="primal"
   solutionStatusValue="101"
   solutionStatusString="integer optimal solution"
   solutionMethodString="mip"
   primalFeasible="1"
   dualFeasible="1"
   MIPNodes="118"
   MIPIterations="16762"
   writeLevel="3"/>
 <quality
   epInt="1.0000000000000001e-05"
   epRHS="9.9999999999999995e-07"
   maxIntInfeas="5.000000413701855e-10"
   maxPrimalInfeas="5.000000413701855e-09"
   maxX="4"
   maxSlack="10"/>
 <variables>
  <variable name="Y(1,13)" index="12" value="1"/>
  <variable name="Y(8,24)" index="450" value="1"/>
  <variable name="Y(9,6)" index="493" value="1"/>
  <variable name="Y(11,3)" index="612" value="1"/>
  <variable name="Y(31,16)" index="1845" value="1"/>
  <variable name="Y(33,19)" index="1970" value="1"/>
  <variable name="Y(41,31)" index="2470" value="1"/>
  <variable name="Y(46,28)" index="2772" value="1"/>
  <variable name="Y(54,18)" index="3250" value="1"/>
  <variable name="Y(56,27)" index="3381" value="1"/>
  <variable name="Y(70,9)" index="4217" value="1"/>
  <variable name="Y(71,12)" index="4281" value="1"/>
  <variable name="Y(76,20)" index="4594" value="1"/>
  <variable name="Y(81,26)" index="4905" value="1"/>
  <variable name="Y(85,32)" index="5155" value="1"/>
  <variable name="Y(101,27)" index="6126" value="1"/>
  <variable name="Y(103,32)" index="6253" value="1"/>
  <variable name="Y(103,34)" index="6255" value="-5.000000413701855e-10"/>
  <variable name="Y(116,22)" index="7036" value="1"/>
  <variable name="Y(124,23)" index="7525" value="1"/>
  <variable name="Y(130,7)" index="7875" value="1"/>
  <variable name="Y(131,8)" index="7937" value="1"/>
  <variable name="Y(140,24)" index="8502" value="1"/>
  <variable name="Y(141,25)" index="8564" value="1"/>
  <variable name="Y(169,15)" index="10262" value="1"/>
  <variable name="Y(200,34)" index="12172" value="1"/>
  <variable name="Y(201,15)" index="12214" value="1"/>
  <variable name="Y(204,1)" index="12383" value="1"/>
  <variable name="Y(205,4)" index="12447" value="1"/>
  <variable name="Y(207,6)" index="12571" value="1"/>
  <variable name="Y(220,3)" index="13361" value="1"/>
  <variable name="Y(222,5)" index="13485" value="1"/>
  <variable name="X(1,4,46)" index="15417" value="1"/>
  <variable name="X(1,7,9)" index="15632" value="1"/>
  <variable name="X(1,37,204)" index="16079" value="1"/>
  <variable name="X(2,1,9)" index="16136" value="1"/>
  <variable name="X(3,28,11)" index="16390" value="1"/>
  <variable name="X(3,39,220)" index="16851" value="1"/>
  <variable name="X(4,1,204)" index="17087" value="1"/>
  <variable name="X(4,28,46)" index="17181" value="1"/>
  <variable name="X(4,40,205)" index="17592" value="1"/>
  <variable name="X(5,6,9)" index="17648" value="1"/>
  <variable name="X(5,7,130)" index="18021" value="1"/>
  <variable name="X(5,41,222)" index="18365" value="1"/>
  <variable name="X(6,5,130)" index="18525" value="1"/>
  <variable name="X(6,9,9)" index="18656" value="1"/>
  <variable name="X(6,10,1)" index="18900" value="1"/>
  <variable name="X(6,42,207)" index="19358" value="1"/>
  <variable name="X(7,1,46)" index="19449" value="1"/>
  <variable name="X(7,5,9)" index="19664" value="1"/>
  <variable name="X(7,8,131)" index="20038" value="1"/>
  <variable name="X(7,43,130)" index="20289" value="1"/>
  <variable name="X(8,7,46)" index="20457" value="1"/>
  <variable name="X(8,44,131)" index="20794" value="1"/>
  <variable name="X(9,6,130)" index="21045" value="1"/>
  <variable name="X(9,21,33)" index="21200" value="1"/>
  <variable name="X(9,24,140)" index="21559" value="1"/>
  <variable name="X(9,45,70)" index="21741" value="1"/>
  <variable name="X(10,6,207)" index="22130" value="1"/>
  <variable name="X(10,22,1)" index="22176" value="1"/>
  <variable name="X(10,35,85)" index="22512" value="1"/>
  <variable name="X(11,13,54)" index="22733" value="1"/>
  <variable name="X(12,13,1)" index="22932" value="1"/>
  <variable name="X(12,22,116)" index="23299" value="1"/>
  <variable name="X(12,48,71)" index="23506" value="1"/>
  <variable name="X(13,12,116)" index="23803" value="1"/>
  <variable name="X(13,14,169)" index="24108" value="1"/>
  <variable name="X(13,18,54)" index="24245" value="1"/>
  <variable name="X(13,49,1)" index="24444" value="1"/>
  <variable name="X(14,13,116)" index="24811" value="1"/>
  <variable name="X(14,15,169)" index="25116" value="1"/>
  <variable name="X(15,14,201)" index="25400" value="1"/>
  <variable name="X(15,34,103)" index="25554" value="1"/>
  <variable name="X(15,51,169)" index="25872" value="1"/>
  <variable name="X(16,52,31)" index="25986" value="1"/>
  <variable name="X(17,18,124)" index="26331" value="1"/>
  <variable name="X(18,13,169)" index="26628" value="1"/>
  <variable name="X(18,23,124)" index="26835" value="1"/>
  <variable name="X(18,54,54)" index="27017" value="1"/>
  <variable name="X(19,20,76)" index="27291" value="1"/>
  <variable name="X(19,25,141)" index="27608" value="1"/>
  <variable name="X(19,26,81)" index="27800" value="1"/>
  <variable name="X(19,55,33)" index="28004" value="1"/>
  <variable name="X(20,19,33)" index="28256" value="1"/>
  <variable name="X(20,56,76)" index="28551" value="1"/>
  <variable name="X(21,9,140)" index="28867" value="1"/>
  <variable name="X(21,20,33)" index="29012" value="1"/>
  <variable name="X(22,10,85)" index="29316" value="1"/>
  <variable name="X(22,12,1)" index="29484" value="1"/>
  <variable name="X(22,58,116)" index="29851" value="1"/>
  <variable name="X(23,18,169)" index="30156" value="1"/>
  <variable name="X(23,24,70)" index="30309" value="1"/>
  <variable name="X(23,25,81)" index="30572" value="1"/>
  <variable name="X(23,59,124)" index="30867" value="1"/>
  <variable name="X(24,9,70)" index="31065" value="1"/>
  <variable name="X(24,23,8)" index="31255" value="1"/>
  <variable name="X(24,60,140)" index="31639" value="1"/>
  <variable name="X(25,19,81)" index="31832" value="1"/>
  <variable name="X(25,61,141)" index="32144" value="1"/>
  <variable name="X(26,62,81)" index="32336" value="1"/>
  <variable name="X(27,29,56)" index="32563" value="1"/>
  <variable name="X(27,36,200)" index="32959" value="1"/>
  <variable name="X(27,63,101)" index="33112" value="1"/>
  <variable name="X(28,3,220)" index="33483" value="1"/>
  <variable name="X(28,4,205)" index="33720" value="1"/>
  <variable name="X(28,29,41)" index="33808" value="1"/>
  <variable name="X(28,64,46)" index="34065" value="1"/>
  <variable name="X(29,27,200)" index="34471" value="1"/>
  <variable name="X(29,28,205)" index="34728" value="1"/>
  <variable name="X(29,30,41)" index="34816" value="1"/>
  <variable name="X(30,29,205)" index="35232" value="1"/>
  <variable name="X(30,31,41)" index="35320" value="1"/>
  <variable name="X(31,30,205)" index="35736" value="1"/>
  <variable name="X(31,32,201)" index="35984" value="1"/>
  <variable name="X(31,67,41)" index="36076" value="1"/>
  <variable name="X(32,31,103)" index="36390" value="1"/>
  <variable name="X(32,33,201)" index="36740" value="1"/>
  <variable name="X(32,35,207)" index="36998" value="1"/>
  <variable name="X(32,68,85)" index="37128" value="1"/>
  <variable name="X(33,32,103)" index="37398" value="1.0000000005"/>
  <variable name="X(33,32,212)" index="37507" value="-5.000000413701855e-10"/>
  <variable name="X(33,34,201)" index="37748" value="1"/>
  <variable name="X(34,15,201)" index="38000" value="1"/>
  <variable name="X(34,33,103)" index="38154" value="1"/>
  <variable name="X(34,35,101)" index="38404" value="1"/>
  <variable name="X(34,70,200)" index="38755" value="1"/>
  <variable name="X(35,10,207)" index="39014" value="1"/>
  <variable name="X(35,16,31)" index="39090" value="1"/>
  <variable name="X(35,32,85)" index="39396" value="1"/>
  <variable name="X(35,34,200)" index="39763" value="1"/>
  <variable name="X(35,36,101)" index="39916" value="1"/>
  <variable name="X(36,27,101)" index="40168" value="1"/>
  <variable name="X(36,35,200)" index="40519" value="1"/>
  <variable name="C(1,10)" index="40576" value="1"/>
  <variable name="C(1,22)" index="40577" value="2"/>
  <variable name="C(1,12)" index="40578" value="3"/>
  <variable name="C(1,13)" index="40579" value="4"/>
  <variable name="C(9,1)" index="40628" value="0.99999999999999911"/>
  <variable name="C(9,7)" index="40629" value="1.9999999999999991"/>
  <variable name="C(9,5)" index="40630" value="2.9999999999999991"/>
  <variable name="C(9,6)" index="40631" value="4"/>
  <variable name="C(31,16)" index="40738" value="1"/>
  <variable name="C(33,21)" index="40750" value="1"/>
  <variable name="C(33,20)" index="40751" value="2"/>
  <variable name="C(33,19)" index="40752" value="3"/>
  <variable name="C(41,29)" index="40796" value="1"/>
  <variable name="C(41,30)" index="40797" value="2"/>
  <variable name="C(41,31)" index="40798" value="3"/>
  <variable name="C(46,7)" index="40827" value="1"/>
  <variable name="C(46,1)" index="40828" value="2"/>
  <variable name="C(46,4)" index="40829" value="3"/>
  <variable name="C(46,28)" index="40830" value="4"/>
  <variable name="C(54,13)" index="40868" value="1"/>
  <variable name="C(54,18)" index="40869" value="2"/>
  <variable name="C(70,24)" index="40972" value="1"/>
  <variable name="C(70,9)" index="40973" value="2"/>
  <variable name="C(76,20)" index="40997" value="1.0000000000000007"/>
  <variable name="C(81,25)" index="41015" value="1"/>
  <variable name="C(81,19)" index="41016" value="2"/>
  <variable name="C(81,26)" index="41017" value="3"/>
  <variable name="C(85,10)" index="41044" value="1"/>
  <variable name="C(85,35)" index="41045" value="2"/>
  <variable name="C(85,32)" index="41046" value="3"/>
  <variable name="C(101,35)" index="41134" value="1"/>
  <variable name="C(101,36)" index="41135" value="2"/>
  <variable name="C(101,27)" index="41136" value="3"/>
  <variable name="C(103,34)" index="41147" value="1"/>
  <variable name="C(103,33)" index="41148" value="2.0000000025000002"/>
  <variable name="C(103,32)" index="41149" value="3.0000000030000002"/>
  <variable name="C(116,13)" index="41223" value="1"/>
  <variable name="C(116,12)" index="41224" value="2"/>
  <variable name="C(116,22)" index="41225" value="3"/>
  <variable name="C(124,18)" index="41261" value="1"/>
  <variable name="C(124,23)" index="41262" value="2"/>
  <variable name="C(130,6)" index="41296" value="1"/>
  <variable name="C(130,5)" index="41297" value="2"/>
  <variable name="C(130,7)" index="41298" value="3"/>
  <variable name="C(131,8)" index="41304" value="1"/>
  <variable name="C(140,9)" index="41340" value="1"/>
  <variable name="C(140,24)" index="41341" value="2"/>
  <variable name="C(141,25)" index="41345" value="1"/>
  <variable name="C(169,18)" index="41499" value="1"/>
  <variable name="C(169,13)" index="41500" value="2"/>
  <variable name="C(169,14)" index="41501" value="3"/>
  <variable name="C(169,15)" index="41502" value="4"/>
  <variable name="C(200,27)" index="41671" value="1"/>
  <variable name="C(200,36)" index="41672" value="2"/>
  <variable name="C(200,35)" index="41673" value="3"/>
  <variable name="C(200,34)" index="41674" value="4"/>
  <variable name="C(201,32)" index="41676" value="1"/>
  <variable name="C(201,33)" index="41677" value="2"/>
  <variable name="C(201,34)" index="41678" value="3"/>
  <variable name="C(201,15)" index="41679" value="4"/>
  <variable name="C(204,1)" index="41702" value="0.99999999999999978"/>
  <variable name="C(205,30)" index="41706" value="1"/>
  <variable name="C(205,29)" index="41707" value="2"/>
  <variable name="C(205,28)" index="41708" value="3"/>
  <variable name="C(205,4)" index="41709" value="4"/>
  <variable name="C(207,35)" index="41718" value="1"/>
  <variable name="C(207,10)" index="41719" value="2"/>
  <variable name="C(207,6)" index="41720" value="3"/>
  <variable name="C(212,32)" index="41742" value="-5.000000413701855e-10"/>
  <variable name="C(212,35)" index="41743" value="-5.000000413701855e-10"/>
  <variable name="C(212,10)" index="41744" value="-5.000000413701855e-10"/>
  <variable name="C(212,22)" index="41745" value="-5.000000413701855e-10"/>
  <variable name="C(220,3)" index="41789" value="1"/>
 </variables>
</CPLEXSolution>
